
  12    4
  10   10   10   10

   0   0   0   0   0   4 2 3 4 5 
   6  10  10  10  10   2 8 6 
   7  10  10  10  10   2 8 6 
  10  10  10  10  10   3 9 8 7 
   4  10  10  10  10   3 9 8 7 
   7  10  10  10  10   2 9 7 
   1  10  10  10  10   2 11 10 
   1  10  10  10  10   2 11 10 
   2  10  10  10  10   1 10 
   5  10  10  10  10   1 12
   6  10  10  10  10   1 12
   0   0   0   0   0   0 
